(declare-fun bvlambda_7_ () (_ BitVec 2))
(declare-fun bvlambda_8_ ()Bool         )
(declare-fun a48 () (Array (_ BitVec 1) (_ BitVec 12)))
(assert
(let (($e9 (_ bv0 9)))
(let (($e24 (_ bv0 8)))
(let (($e128 (concat $e9   bvlambda_7_)))
(let (($e129 (concat $e128 false      )))
(let (($e130 (store a48 false $e129)))
(let (($e291 (select $e130 bvlambda_8_)))
(let (($e293 (select a48 true       )))
(let (($e295 (store a48   bvlambda_8_ $e293)))
(let (($e296 (select $e295 true )))
(let (($e300 (   extract        $e291)))
(let (($e301 ((_ extract 11 4) $e296)))
(let (($e302      (= $e24 $e301)         ))
             (bvand $e302 $e300)
                                                                                                                                          )))   )) ) )                                                                                                                                                                )))                                                                                   )              )        )
